1195.28 0
0 82 20 83 85 84 86 87 89 90 92 29 58 52 51 50 49 48 34 32 47 0
0 66 71 117 131 114 115 119 130 65 19 118 46 0
0 73 74 134 76 77 64 63 79 67 70 69 68 80 33 133 78 0
0 91 21 25 26 27 28 16 13 15 88 14 11 12 10 9 8 7 6 5 4 2 42 41 3 40 44 43 45 94 93 30 31 59 23 24 22 0
0 17 18 116 106 107 108 109 120 121 122 110 0
0 72 75 1 62 53 102 104 101 35 36 99 100 98 37 95 39 38 96 97 105 57 56 103 55 54 61 60 0
0 132 113 129 128 127 126 124 123 111 125 112 81 0